
  24    0


   0  11 2 3 4 7 8 9 10 20 21 22 23 
   3   7 19 18 17 15 14 6 5 
   8   3 15 12 11 
   9   2 14 6 
   2   2 16 12 
   3   1 11 
   6   1 13 
   3   1 13 
   6   1 12 
   6   1 11 
   5   1 24
   7   1 24
   9   1 24
   6   1 24
   7   1 24
   3   1 24
   1   1 24
   9   1 24
   1   1 24
   2   1 24
   3   1 24
   6   1 24
   7   1 24
   0   0 
